
%    +-----------+
% 8  | | | | | | |
% 7  | | |1|1| | |
% 6  | | |1|1| | |
% 5  | | | | |2| |
% 4  | |4| | | | |
% 3  | | | | | | |
% 2  | | |3| | | |
% 1  | | | | | | |
%    +-----------+
n=6;
m=8;
h=2;
%maxT=45;
boxNumber=4;
boxSideLen = [2, 1, 1, 1];
boxStartX  = [3, 5, 3, 2];
boxStartY  = [6, 5, 2, 4];
